(set-info :status unknown)
(declare-const symbol_100004 (_ BitVec 32))
(declare-const symbol_100006 (_ BitVec 32))
(declare-const symbol_100002 (_ BitVec 32))
(declare-const symbol_100010 (_ BitVec 32))
(declare-const symbol_100011 (_ BitVec 32))
(declare-const symbol_100001 (_ BitVec 32))
(declare-const symbol_100015 (_ BitVec 32))
(declare-const symbol_100013 (_ BitVec 32))
(declare-const symbol_100000 (_ BitVec 32))
(declare-const symbol_100005 (_ BitVec 32))
(declare-const symbol_100014 (_ BitVec 32))
(declare-const symbol_100007 (_ BitVec 32))
(declare-const symbol_100009 (_ BitVec 32))
(declare-const symbol_100008 (_ BitVec 32))
(declare-const symbol_100016 (_ BitVec 32))
(declare-const symbol_100003 (_ BitVec 32))
(declare-const symbol_100017 (_ BitVec 32))
(declare-const symbol_100012 (_ BitVec 32))
(assert (not (= symbol_100005 symbol_100017)))
(assert (not (= symbol_100004 symbol_100017)))
(assert (not (= symbol_100003 symbol_100017)))
(assert (not (= symbol_100002 symbol_100017)))
(assert (not (= symbol_100001 symbol_100017)))
(assert (not (= symbol_100000 symbol_100017)))
(assert (not (= symbol_100015 symbol_100016)))
(assert (not (= symbol_100014 symbol_100016)))
(assert (not (= symbol_100013 symbol_100016)))
(assert (not (= symbol_100012 symbol_100016)))
(assert (not (= symbol_100011 symbol_100016)))
(assert (not (= symbol_100010 symbol_100016)))
(assert (not (= symbol_100009 symbol_100016)))
(assert (not (= symbol_100008 symbol_100016)))
(assert (not (= symbol_100007 symbol_100016)))
(assert (not (= symbol_100006 symbol_100016)))
(assert (not (= symbol_100005 symbol_100016)))
(assert (not (= symbol_100004 symbol_100016)))
(assert (not (= symbol_100003 symbol_100016)))
(assert (not (= symbol_100002 symbol_100016)))
(assert (not (= symbol_100001 symbol_100016)))
(assert (not (= symbol_100000 symbol_100016)))
(assert (not (= symbol_100014 symbol_100015)))
(assert (not (= symbol_100013 symbol_100015)))
(assert (not (= symbol_100012 symbol_100015)))
(assert (not (= symbol_100011 symbol_100015)))
(assert (not (= symbol_100010 symbol_100015)))
(assert (not (= symbol_100009 symbol_100015)))
(assert (not (= symbol_100008 symbol_100015)))
(assert (not (= symbol_100007 symbol_100015)))
(assert (not (= symbol_100006 symbol_100015)))
(assert (not (= symbol_100005 symbol_100015)))
(assert (not (= symbol_100004 symbol_100015)))
(assert (not (= symbol_100003 symbol_100015)))
(assert (not (= symbol_100002 symbol_100015)))
(assert (not (= symbol_100001 symbol_100015)))
(assert (not (= symbol_100000 symbol_100015)))
(assert (not (= symbol_100013 symbol_100014)))
(assert (not (= symbol_100012 symbol_100014)))
(assert (not (= symbol_100011 symbol_100014)))
(assert (not (= symbol_100010 symbol_100014)))
(assert (not (= symbol_100009 symbol_100014)))
(assert (not (= symbol_100008 symbol_100014)))
(assert (not (= symbol_100007 symbol_100014)))
(assert (not (= symbol_100006 symbol_100014)))
(assert (not (= symbol_100005 symbol_100014)))
(assert (not (= symbol_100004 symbol_100014)))
(assert (not (= symbol_100003 symbol_100014)))
(assert (not (= symbol_100002 symbol_100014)))
(assert (not (= symbol_100001 symbol_100014)))
(assert (not (= symbol_100000 symbol_100014)))
(assert (not (= symbol_100012 symbol_100013)))
(assert (not (= symbol_100011 symbol_100013)))
(assert (not (= symbol_100010 symbol_100013)))
(assert (not (= symbol_100009 symbol_100013)))
(assert (not (= symbol_100008 symbol_100013)))
(assert (not (= symbol_100007 symbol_100013)))
(assert (not (= symbol_100006 symbol_100013)))
(assert (not (= symbol_100005 symbol_100013)))
(assert (not (= symbol_100004 symbol_100013)))
(assert (not (= symbol_100003 symbol_100013)))
(assert (not (= symbol_100002 symbol_100013)))
(assert (not (= symbol_100001 symbol_100013)))
(assert (not (= symbol_100000 symbol_100013)))
(assert (not (= symbol_100011 symbol_100012)))
(assert (not (= symbol_100010 symbol_100012)))
(assert (not (= symbol_100009 symbol_100012)))
(assert (not (= symbol_100008 symbol_100012)))
(assert (not (= symbol_100007 symbol_100012)))
(assert (not (= symbol_100006 symbol_100012)))
(assert (not (= symbol_100005 symbol_100012)))
(assert (not (= symbol_100004 symbol_100012)))
(assert (not (= symbol_100003 symbol_100012)))
(assert (not (= symbol_100002 symbol_100012)))
(assert (not (= symbol_100001 symbol_100012)))
(assert (not (= symbol_100000 symbol_100012)))
(assert (not (= symbol_100010 symbol_100011)))
(assert (not (= symbol_100009 symbol_100011)))
(assert (not (= symbol_100008 symbol_100011)))
(assert (not (= symbol_100007 symbol_100011)))
(assert (not (= symbol_100006 symbol_100011)))
(assert (not (= symbol_100005 symbol_100011)))
(assert (not (= symbol_100004 symbol_100011)))
(assert (not (= symbol_100003 symbol_100011)))
(assert (not (= symbol_100002 symbol_100011)))
(assert (not (= symbol_100001 symbol_100011)))
(assert (not (= symbol_100000 symbol_100011)))
(assert (not (= symbol_100009 symbol_100010)))
(assert (not (= symbol_100008 symbol_100010)))
(assert (not (= symbol_100007 symbol_100010)))
(assert (not (= symbol_100006 symbol_100010)))
(assert (not (= symbol_100005 symbol_100010)))
(assert (not (= symbol_100004 symbol_100010)))
(assert (not (= symbol_100003 symbol_100010)))
(assert (not (= symbol_100002 symbol_100010)))
(assert (not (= symbol_100001 symbol_100010)))
(assert (not (= symbol_100000 symbol_100010)))
(assert (not (= symbol_100008 symbol_100009)))
(assert (not (= symbol_100007 symbol_100009)))
(assert (not (= symbol_100006 symbol_100009)))
(assert (not (= symbol_100005 symbol_100009)))
(assert (not (= symbol_100004 symbol_100009)))
(assert (not (= symbol_100003 symbol_100009)))
(assert (not (= symbol_100002 symbol_100009)))
(assert (not (= symbol_100001 symbol_100009)))
(assert (not (= symbol_100000 symbol_100009)))
(assert (not (= symbol_100007 symbol_100008)))
(assert (not (= symbol_100006 symbol_100008)))
(assert (not (= symbol_100005 symbol_100008)))
(assert (not (= symbol_100004 symbol_100008)))
(assert (not (= symbol_100003 symbol_100008)))
(assert (not (= symbol_100002 symbol_100008)))
(assert (not (= symbol_100001 symbol_100008)))
(assert (not (= symbol_100000 symbol_100008)))
(assert (not (= symbol_100006 symbol_100007)))
(assert (not (= symbol_100005 symbol_100007)))
(assert (not (= symbol_100004 symbol_100007)))
(assert (not (= symbol_100003 symbol_100007)))
(assert (not (= symbol_100002 symbol_100007)))
(assert (not (= symbol_100001 symbol_100007)))
(assert (not (= symbol_100000 symbol_100007)))
(assert (not (= symbol_100005 symbol_100006)))
(assert (not (= symbol_100004 symbol_100006)))
(assert (not (= symbol_100003 symbol_100006)))
(assert (not (= symbol_100002 symbol_100006)))
(assert (not (= symbol_100001 symbol_100006)))
(assert (not (= symbol_100000 symbol_100006)))
(assert (not (= symbol_100004 symbol_100005)))
(assert (not (= symbol_100003 symbol_100005)))
(assert (not (= symbol_100002 symbol_100005)))
(assert (not (= symbol_100001 symbol_100005)))
(assert (not (= symbol_100000 symbol_100005)))
(assert (not (= symbol_100003 symbol_100004)))
(assert (not (= symbol_100002 symbol_100004)))
(assert (not (= symbol_100001 symbol_100004)))
(assert (not (= symbol_100000 symbol_100004)))
(assert (not (= symbol_100002 symbol_100003)))
(assert (not (= symbol_100001 symbol_100003)))
(assert (not (= symbol_100000 symbol_100003)))
(assert (not (= symbol_100001 symbol_100002)))
(assert (not (= symbol_100000 symbol_100002)))
(assert (not (= symbol_100000 symbol_100001)))
(check-sat)